8982
0 1 1 1 0 1 0 1 0 0 0 0 1 1 0 0 1 0 0 0 1 0 0 0 1 0 0 1 0 1
3 13 20 29 3 5 1 16 5 3 2 1 13 7 24 7 5 7 2 20 12 29 3 13 20 29 2 13 7 27 1 27 2 7 5 7 12 1 12 5 27 7 7 27 3 16 7 3 2 20 12 24 20 3 24 3 24 29 5 24 16 27 24 29 7 7 29 12 24 3